p cnf 16 35
-4 -7 -9 -12 0
-1 -13 -15 -16 0
-1 -4 -9 -12 0
-1 -4 -9 -13 0
-3 -4 -7 -9 0
-4 -5 -7 -9 0
-4 -7 -9 -13 0
-3 -7 -15 -16 0
-4 -7 -12 -15 0
-2 -4 -7 -12 0
-4 -7 -8 -12 0
-4 -7 -12 -17 0
-4 -7 -12 -22 0
-7 -13 -16 -22 0
-7 -9 -12 -16 0
-2 -7 -12 -16 0
-7 -8 -12 -16 0
-7 -12 -16 -17 0
-7 -12 -16 -22 0
-7 -12 -15 -16 0
-1 -2 -12 -16 0
-12 -15 -16 -19 0
-4 -9 -12 -23 0
-4 -9 -12 -19 0
-9 -12 -16 -23 0
-1 -9 -12 -16 0
-9 -12 -16 -19 0
-2 -12 -16 -23 0
-4 -8 -12 -19 0
-1 -4 -12 -17 0
-1 -4 -12 -22 0
-1 -2 -4 -12 0
-1 -4 -12 -15 0
-1 -13 -16 -22 0
-1 -8 -12 -16 0
